/*********************************************
    * Lab01 - simple
    * Author: Coso
    * Creation Date: Mar, 2019
    *********************************************/
instance_name = "medium_instance_19_simple";

d = 5;
r = 15;

SCj = [337 347 345 333 323];
Dk = [100 62 54 98 93 79 31 33 17 99 25 80 72 94 47];

Cjk = [[83 73 51 63 89 42 57 64 74 87 75 39 86 34 67]
 [67 87 51 42 68 76 37 82 67 89 87 74 86 38 31]
 [31 73 44 66 35 37 76 62 34 71 38 82 56 39 81]
 [65 39 61 71 45 77 59 82 60 69 46 32 68 43 51]
 [77 35 67 48 55 54 39 75 64 80 33 83 68 36 38]];
